VER
4

OBJSENSE
MIN

VAR
326 1
F 326

CON
1033 3
SVECQRE 651
SVECPSD 325
L= 57

OBJACOORD
1
0 1.0

ACOORD
1039
0 0 1.0
1 1 1.0
2 2 1.0
3 3 1.0
4 4 1.0
5 5 1.0
6 6 1.0
7 7 1.0
8 8 1.0
9 9 1.0
10 10 1.0
11 11 1.0
12 12 1.0
13 13 1.0
14 14 1.0
15 15 1.0
16 16 1.0
17 17 1.0
18 18 1.0
19 19 1.0
20 20 1.0
21 21 1.0
22 22 1.0
23 23 1.0
24 24 1.0
25 25 1.0
26 26 1.0
27 27 1.0
28 28 1.0
29 29 1.0
30 30 1.0
31 31 1.0
32 32 1.0
33 33 1.0
34 34 1.0
35 35 1.0
36 36 1.0
37 37 1.0
38 38 1.0
39 39 1.0
40 40 1.0
41 41 1.0
42 42 1.0
43 43 1.0
44 44 1.0
45 45 1.0
46 46 1.0
47 47 1.0
48 48 1.0
49 49 1.0
50 50 1.0
51 51 1.0
52 52 1.0
53 53 1.0
54 54 1.0
55 55 1.0
56 56 1.0
57 57 1.0
58 58 1.0
59 59 1.0
60 60 1.0
61 61 1.0
62 62 1.0
63 63 1.0
64 64 1.0
65 65 1.0
66 66 1.0
67 67 1.0
68 68 1.0
69 69 1.0
70 70 1.0
71 71 1.0
72 72 1.0
73 73 1.0
74 74 1.0
75 75 1.0
76 76 1.0
77 77 1.0
78 78 1.0
79 79 1.0
80 80 1.0
81 81 1.0
82 82 1.0
83 83 1.0
84 84 1.0
85 85 1.0
86 86 1.0
87 87 1.0
88 88 1.0
89 89 1.0
90 90 1.0
91 91 1.0
92 92 1.0
93 93 1.0
94 94 1.0
95 95 1.0
96 96 1.0
97 97 1.0
98 98 1.0
99 99 1.0
100 100 1.0
101 101 1.0
102 102 1.0
103 103 1.0
104 104 1.0
105 105 1.0
106 106 1.0
107 107 1.0
108 108 1.0
109 109 1.0
110 110 1.0
111 111 1.0
112 112 1.0
113 113 1.0
114 114 1.0
115 115 1.0
116 116 1.0
117 117 1.0
118 118 1.0
119 119 1.0
120 120 1.0
121 121 1.0
122 122 1.0
123 123 1.0
124 124 1.0
125 125 1.0
126 126 1.0
127 127 1.0
128 128 1.0
129 129 1.0
130 130 1.0
131 131 1.0
132 132 1.0
133 133 1.0
134 134 1.0
135 135 1.0
136 136 1.0
137 137 1.0
138 138 1.0
139 139 1.0
140 140 1.0
141 141 1.0
142 142 1.0
143 143 1.0
144 144 1.0
145 145 1.0
146 146 1.0
147 147 1.0
148 148 1.0
149 149 1.0
150 150 1.0
151 151 1.0
152 152 1.0
153 153 1.0
154 154 1.0
155 155 1.0
156 156 1.0
157 157 1.0
158 158 1.0
159 159 1.0
160 160 1.0
161 161 1.0
162 162 1.0
163 163 1.0
164 164 1.0
165 165 1.0
166 166 1.0
167 167 1.0
168 168 1.0
169 169 1.0
170 170 1.0
171 171 1.0
172 172 1.0
173 173 1.0
174 174 1.0
175 175 1.0
176 176 1.0
177 177 1.0
178 178 1.0
179 179 1.0
180 180 1.0
181 181 1.0
182 182 1.0
183 183 1.0
184 184 1.0
185 185 1.0
186 186 1.0
187 187 1.0
188 188 1.0
189 189 1.0
190 190 1.0
191 191 1.0
192 192 1.0
193 193 1.0
194 194 1.0
195 195 1.0
196 196 1.0
197 197 1.0
198 198 1.0
199 199 1.0
200 200 1.0
201 201 1.0
202 202 1.0
203 203 1.0
204 204 1.0
205 205 1.0
206 206 1.0
207 207 1.0
208 208 1.0
209 209 1.0
210 210 1.0
211 211 1.0
212 212 1.0
213 213 1.0
214 214 1.0
215 215 1.0
216 216 1.0
217 217 1.0
218 218 1.0
219 219 1.0
220 220 1.0
221 221 1.0
222 222 1.0
223 223 1.0
224 224 1.0
225 225 1.0
226 226 1.0
227 227 1.0
228 228 1.0
229 229 1.0
230 230 1.0
231 231 1.0
232 232 1.0
233 233 1.0
234 234 1.0
235 235 1.0
236 236 1.0
237 237 1.0
238 238 1.0
239 239 1.0
240 240 1.0
241 241 1.0
242 242 1.0
243 243 1.0
244 244 1.0
245 245 1.0
246 246 1.0
247 247 1.0
248 248 1.0
249 249 1.0
250 250 1.0
251 251 1.0
252 252 1.0
253 253 1.0
254 254 1.0
255 255 1.0
256 256 1.0
257 257 1.0
258 258 1.0
259 259 1.0
260 260 1.0
261 261 1.0
262 262 1.0
263 263 1.0
264 264 1.0
265 265 1.0
266 266 1.0
267 267 1.0
268 268 1.0
269 269 1.0
270 270 1.0
271 271 1.0
272 272 1.0
273 273 1.0
274 274 1.0
275 275 1.0
276 276 1.0
277 277 1.0
278 278 1.0
279 279 1.0
280 280 1.0
281 281 1.0
282 282 1.0
283 283 1.0
284 284 1.0
285 285 1.0
286 286 1.0
287 287 1.0
288 288 1.0
289 289 1.0
290 290 1.0
291 291 1.0
292 292 1.0
293 293 1.0
294 294 1.0
295 295 1.0
296 296 1.0
297 297 1.0
298 298 1.0
299 299 1.0
300 300 1.0
301 301 1.0
302 302 1.0
303 303 1.0
304 304 1.0
305 305 1.0
306 306 1.0
307 307 1.0
308 308 1.0
309 309 1.0
310 310 1.0
311 311 1.0
312 312 1.0
313 313 1.0
314 314 1.0
315 315 1.0
316 316 1.0
317 317 1.0
318 318 1.0
319 319 1.0
320 320 1.0
321 321 1.0
322 322 1.0
323 323 1.0
324 324 1.0
325 325 1.0
326 1 1.0
327 2 1.0
328 3 1.0
329 4 1.0
330 5 1.0
331 6 1.0
332 7 1.0
333 8 1.0
334 9 1.0
335 10 1.0
336 11 1.0
337 12 1.0
338 13 1.0
339 14 1.0
340 15 1.0
346 21 1.0
352 27 1.0
353 28 1.0
359 34 1.0
360 35 1.0
361 36 1.0
367 42 1.0
368 43 1.0
369 44 1.0
370 45 1.0
376 51 1.0
377 52 1.0
378 53 1.0
379 54 1.0
380 55 1.0
391 66 1.0
402 77 1.0
403 78 1.0
414 89 1.0
415 90 1.0
416 91 1.0
427 102 1.0
428 103 1.0
429 104 1.0
430 105 1.0
441 116 1.0
442 117 1.0
443 118 1.0
444 119 1.0
445 120 1.0
461 136 1.0
477 152 1.0
478 153 1.0
494 169 1.0
495 170 1.0
496 171 1.0
512 187 1.0
513 188 1.0
514 189 1.0
515 190 1.0
531 206 1.0
532 207 1.0
533 208 1.0
534 209 1.0
535 210 1.0
556 231 1.0
577 252 1.0
578 253 1.0
599 274 1.0
600 275 1.0
601 276 1.0
622 297 1.0
623 298 1.0
624 299 1.0
625 300 1.0
646 321 1.0
647 322 1.0
648 323 1.0
649 324 1.0
650 325 1.0
651 1 1.0
652 2 1.0
653 3 1.0
654 4 1.0
655 5 1.0
656 6 1.0
657 7 1.0
658 8 1.0
659 9 1.0
660 10 1.0
661 11 1.0
662 12 1.0
663 13 1.0
664 14 1.0
665 15 1.0
666 16 1.0
667 17 1.0
668 18 1.0
669 19 1.0
670 20 1.0
671 21 1.0
672 22 1.0
673 23 1.0
674 24 1.0
675 25 1.0
676 26 1.0
677 27 1.0
678 28 1.0
679 29 1.0
680 30 1.0
681 31 1.0
682 32 1.0
683 33 1.0
684 34 1.0
685 35 1.0
686 36 1.0
687 37 1.0
688 38 1.0
689 39 1.0
690 40 1.0
691 41 1.0
692 42 1.0
693 43 1.0
694 44 1.0
695 45 1.0
696 46 1.0
697 47 1.0
698 48 1.0
699 49 1.0
700 50 1.0
701 51 1.0
702 52 1.0
703 53 1.0
704 54 1.0
705 55 1.0
706 56 1.0
707 57 1.0
708 58 1.0
709 59 1.0
710 60 1.0
711 61 1.0
712 62 1.0
713 63 1.0
714 64 1.0
715 65 1.0
716 66 1.0
717 67 1.0
718 68 1.0
719 69 1.0
720 70 1.0
721 71 1.0
722 72 1.0
723 73 1.0
724 74 1.0
725 75 1.0
726 76 1.0
727 77 1.0
728 78 1.0
729 79 1.0
730 80 1.0
731 81 1.0
732 82 1.0
733 83 1.0
734 84 1.0
735 85 1.0
736 86 1.0
737 87 1.0
738 88 1.0
739 89 1.0
740 90 1.0
741 91 1.0
742 92 1.0
743 93 1.0
744 94 1.0
745 95 1.0
746 96 1.0
747 97 1.0
748 98 1.0
749 99 1.0
750 100 1.0
751 101 1.0
752 102 1.0
753 103 1.0
754 104 1.0
755 105 1.0
756 106 1.0
757 107 1.0
758 108 1.0
759 109 1.0
760 110 1.0
761 111 1.0
762 112 1.0
763 113 1.0
764 114 1.0
765 115 1.0
766 116 1.0
767 117 1.0
768 118 1.0
769 119 1.0
770 120 1.0
771 121 1.0
772 122 1.0
773 123 1.0
774 124 1.0
775 125 1.0
776 126 1.0
777 127 1.0
778 128 1.0
779 129 1.0
780 130 1.0
781 131 1.0
782 132 1.0
783 133 1.0
784 134 1.0
785 135 1.0
786 136 1.0
787 137 1.0
788 138 1.0
789 139 1.0
790 140 1.0
791 141 1.0
792 142 1.0
793 143 1.0
794 144 1.0
795 145 1.0
796 146 1.0
797 147 1.0
798 148 1.0
799 149 1.0
800 150 1.0
801 151 1.0
802 152 1.0
803 153 1.0
804 154 1.0
805 155 1.0
806 156 1.0
807 157 1.0
808 158 1.0
809 159 1.0
810 160 1.0
811 161 1.0
812 162 1.0
813 163 1.0
814 164 1.0
815 165 1.0
816 166 1.0
817 167 1.0
818 168 1.0
819 169 1.0
820 170 1.0
821 171 1.0
822 172 1.0
823 173 1.0
824 174 1.0
825 175 1.0
826 176 1.0
827 177 1.0
828 178 1.0
829 179 1.0
830 180 1.0
831 181 1.0
832 182 1.0
833 183 1.0
834 184 1.0
835 185 1.0
836 186 1.0
837 187 1.0
838 188 1.0
839 189 1.0
840 190 1.0
841 191 1.0
842 192 1.0
843 193 1.0
844 194 1.0
845 195 1.0
846 196 1.0
847 197 1.0
848 198 1.0
849 199 1.0
850 200 1.0
851 201 1.0
852 202 1.0
853 203 1.0
854 204 1.0
855 205 1.0
856 206 1.0
857 207 1.0
858 208 1.0
859 209 1.0
860 210 1.0
861 211 1.0
862 212 1.0
863 213 1.0
864 214 1.0
865 215 1.0
866 216 1.0
867 217 1.0
868 218 1.0
869 219 1.0
870 220 1.0
871 221 1.0
872 222 1.0
873 223 1.0
874 224 1.0
875 225 1.0
876 226 1.0
877 227 1.0
878 228 1.0
879 229 1.0
880 230 1.0
881 231 1.0
882 232 1.0
883 233 1.0
884 234 1.0
885 235 1.0
886 236 1.0
887 237 1.0
888 238 1.0
889 239 1.0
890 240 1.0
891 241 1.0
892 242 1.0
893 243 1.0
894 244 1.0
895 245 1.0
896 246 1.0
897 247 1.0
898 248 1.0
899 249 1.0
900 250 1.0
901 251 1.0
902 252 1.0
903 253 1.0
904 254 1.0
905 255 1.0
906 256 1.0
907 257 1.0
908 258 1.0
909 259 1.0
910 260 1.0
911 261 1.0
912 262 1.0
913 263 1.0
914 264 1.0
915 265 1.0
916 266 1.0
917 267 1.0
918 268 1.0
919 269 1.0
920 270 1.0
921 271 1.0
922 272 1.0
923 273 1.0
924 274 1.0
925 275 1.0
926 276 1.0
927 277 1.0
928 278 1.0
929 279 1.0
930 280 1.0
931 281 1.0
932 282 1.0
933 283 1.0
934 284 1.0
935 285 1.0
936 286 1.0
937 287 1.0
938 288 1.0
939 289 1.0
940 290 1.0
941 291 1.0
942 292 1.0
943 293 1.0
944 294 1.0
945 295 1.0
946 296 1.0
947 297 1.0
948 298 1.0
949 299 1.0
950 300 1.0
951 301 1.0
952 302 1.0
953 303 1.0
954 304 1.0
955 305 1.0
956 306 1.0
957 307 1.0
958 308 1.0
959 309 1.0
960 310 1.0
961 311 1.0
962 312 1.0
963 313 1.0
964 314 1.0
965 315 1.0
966 316 1.0
967 317 1.0
968 318 1.0
969 319 1.0
970 320 1.0
971 321 1.0
972 322 1.0
973 323 1.0
974 324 1.0
975 325 1.0
976 1 1.0
977 3 1.0
978 6 1.0
979 10 1.0
980 15 1.0
981 21 1.0
982 28 1.0
983 36 1.0
984 45 1.0
985 55 1.0
986 66 1.0
987 78 1.0
988 91 1.0
989 105 1.0
990 120 1.0
991 136 1.0
992 153 1.0
993 171 1.0
994 190 1.0
995 210 1.0
996 231 1.0
997 253 1.0
998 276 1.0
999 300 1.0
1000 1 0.25
1000 2 0.3535533905932738
1000 3 0.25
1000 16 0.3535533905932738
1000 17 0.3535533905932738
1000 21 0.25
1000 22 0.3535533905932738
1000 23 0.3535533905932738
1000 27 0.3535533905932738
1000 28 0.25
1001 1 0.25
1001 2 -0.3535533905932738
1001 3 0.25
1001 16 0.3535533905932738
1001 17 -0.3535533905932738
1001 21 0.25
1001 22 -0.3535533905932738
1001 23 0.3535533905932738
1001 27 -0.3535533905932738
1001 28 0.25
1002 6 0.25
1002 9 0.3535533905932738
1002 10 0.25
1002 31 0.3535533905932738
1002 32 0.3535533905932738
1002 36 0.25
1002 39 0.3535533905932738
1002 40 0.3535533905932738
1002 44 0.3535533905932738
1002 45 0.25
1003 6 0.25
1003 9 -0.3535533905932738
1003 10 0.25
1003 31 0.3535533905932738
1003 32 -0.3535533905932738
1003 36 0.25
1003 39 -0.3535533905932738
1003 40 0.3535533905932738
1003 44 -0.3535533905932738
1003 45 0.25
1004 15 0.5
1004 50 0.7071067811865476
1004 55 0.5
1005 1 0.25
1005 2 0.3535533905932738
1005 3 0.25
1005 16 -0.3535533905932738
1005 17 -0.3535533905932738
1005 21 0.25
1005 22 -0.3535533905932738
1005 23 -0.3535533905932738
1005 27 0.3535533905932738
1005 28 0.25
1006 6 0.25
1006 9 0.3535533905932738
1006 10 0.25
1006 31 -0.3535533905932738
1006 32 -0.3535533905932738
1006 36 0.25
1006 39 -0.3535533905932738
1006 40 -0.3535533905932738
1006 44 0.3535533905932738
1006 45 0.25
1007 66 0.25
1007 77 0.3535533905932738
1007 78 0.25
1007 131 0.3535533905932738
1007 132 0.3535533905932738
1007 136 0.25
1007 147 0.3535533905932738
1007 148 0.3535533905932738
1007 152 0.3535533905932738
1007 153 0.25
1008 66 0.25
1008 77 -0.3535533905932738
1008 78 0.25
1008 131 0.3535533905932738
1008 132 -0.3535533905932738
1008 136 0.25
1008 147 -0.3535533905932738
1008 148 0.3535533905932738
1008 152 -0.3535533905932738
1008 153 0.25
1009 91 0.25
1009 104 0.3535533905932738
1009 105 0.25
1009 166 0.3535533905932738
1009 167 0.3535533905932738
1009 171 0.25
1009 184 0.3535533905932738
1009 185 0.3535533905932738
1009 189 0.3535533905932738
1009 190 0.25
1010 91 0.25
1010 104 -0.3535533905932738
1010 105 0.25
1010 166 0.3535533905932738
1010 167 -0.3535533905932738
1010 171 0.25
1010 184 -0.3535533905932738
1010 185 0.3535533905932738
1010 189 -0.3535533905932738
1010 190 0.25
1011 120 0.5
1011 205 0.7071067811865476
1011 210 0.5
1012 66 0.25
1012 77 0.3535533905932738
1012 78 0.25
1012 131 -0.3535533905932738
1012 132 -0.3535533905932738
1012 136 0.25
1012 147 -0.3535533905932738
1012 148 -0.3535533905932738
1012 152 0.3535533905932738
1012 153 0.25
1013 91 0.25
1013 104 0.3535533905932738
1013 105 0.25
1013 166 -0.3535533905932738
1013 167 -0.3535533905932738
1013 171 0.25
1013 184 -0.3535533905932738
1013 185 -0.3535533905932738
1013 189 0.3535533905932738
1013 190 0.25
1014 231 0.5
1014 252 0.7071067811865476
1014 253 0.5
1015 276 0.5
1015 299 0.7071067811865476
1015 300 0.5
1016 3 0.5
1016 5 0.7071067811865476
1016 6 0.5
1017 10 0.5
1017 14 0.7071067811865476
1017 15 0.5
1018 21 0.5
1018 61 0.7071067811865476
1018 66 0.5
1019 28 0.25
1019 35 0.3535533905932738
1019 36 0.25
1019 73 0.3535533905932738
1019 74 0.3535533905932738
1019 78 0.25
1019 85 0.3535533905932738
1019 86 0.3535533905932738
1019 90 0.3535533905932738
1019 91 0.25
1020 28 0.25
1020 35 -0.3535533905932738
1020 36 0.25
1020 73 0.3535533905932738
1020 74 -0.3535533905932738
1020 78 0.25
1020 85 -0.3535533905932738
1020 86 0.3535533905932738
1020 90 -0.3535533905932738
1020 91 0.25
1021 45 0.25
1021 54 0.3535533905932738
1021 55 0.25
1021 100 0.3535533905932738
1021 101 0.3535533905932738
1021 105 0.25
1021 114 0.3535533905932738
1021 115 0.3535533905932738
1021 119 0.3535533905932738
1021 120 0.25
1022 45 0.25
1022 54 -0.3535533905932738
1022 55 0.25
1022 100 0.3535533905932738
1022 101 -0.3535533905932738
1022 105 0.25
1022 114 -0.3535533905932738
1022 115 0.3535533905932738
1022 119 -0.3535533905932738
1022 120 0.25
1023 28 0.25
1023 35 0.3535533905932738
1023 36 0.25
1023 73 -0.3535533905932738
1023 74 -0.3535533905932738
1023 78 0.25
1023 85 -0.3535533905932738
1023 86 -0.3535533905932738
1023 90 0.3535533905932738
1023 91 0.25
1024 45 0.25
1024 54 0.3535533905932738
1024 55 0.25
1024 100 -0.3535533905932738
1024 101 -0.3535533905932738
1024 105 0.25
1024 114 -0.3535533905932738
1024 115 -0.3535533905932738
1024 119 0.3535533905932738
1024 120 0.25
1025 136 0.5
1025 226 0.7071067811865476
1025 231 0.5
1026 153 0.25
1026 170 0.3535533905932738
1026 171 0.25
1026 248 0.3535533905932738
1026 249 0.3535533905932738
1026 253 0.25
1026 270 0.3535533905932738
1026 271 0.3535533905932738
1026 275 0.3535533905932738
1026 276 0.25
1027 153 0.25
1027 170 -0.3535533905932738
1027 171 0.25
1027 248 0.3535533905932738
1027 249 -0.3535533905932738
1027 253 0.25
1027 270 -0.3535533905932738
1027 271 0.3535533905932738
1027 275 -0.3535533905932738
1027 276 0.25
1028 190 0.25
1028 209 0.3535533905932738
1028 210 0.25
1028 295 0.3535533905932738
1028 296 0.3535533905932738
1028 300 0.25
1028 319 0.3535533905932738
1028 320 0.3535533905932738
1028 324 0.3535533905932738
1028 325 0.25
1029 190 0.25
1029 209 -0.3535533905932738
1029 210 0.25
1029 295 0.3535533905932738
1029 296 -0.3535533905932738
1029 300 0.25
1029 319 -0.3535533905932738
1029 320 0.3535533905932738
1029 324 -0.3535533905932738
1029 325 0.25
1030 153 0.25
1030 170 0.3535533905932738
1030 171 0.25
1030 248 -0.3535533905932738
1030 249 -0.3535533905932738
1030 253 0.25
1030 270 -0.3535533905932738
1030 271 -0.3535533905932738
1030 275 0.3535533905932738
1030 276 0.25
1031 190 0.25
1031 209 0.3535533905932738
1031 210 0.25
1031 295 -0.3535533905932738
1031 296 -0.3535533905932738
1031 300 0.25
1031 319 -0.3535533905932738
1031 320 -0.3535533905932738
1031 324 0.3535533905932738
1031 325 0.25
1032 1 1.0
1032 3 1.0
1032 6 1.0
1032 10 1.0
1032 15 1.0
1032 21 1.0
1032 28 1.0
1032 36 1.0
1032 45 1.0
1032 55 1.0
1032 66 1.0
1032 78 1.0
1032 91 1.0
1032 105 1.0
1032 120 1.0
1032 136 1.0
1032 153 1.0
1032 171 1.0
1032 190 1.0
1032 210 1.0
1032 231 1.0
1032 253 1.0
1032 276 1.0
1032 300 1.0
1032 325 1.0

BCOORD
57
976 0.192
977 0.0020000000000000018
978 0.0020000000000000018
979 0.0020000000000000018
980 0.0020000000000000018
981 0.0020000000000000018
982 0.192
983 0.0020000000000000018
984 0.0020000000000000018
985 0.0020000000000000018
986 0.0020000000000000018
987 0.0020000000000000018
988 0.192
989 0.0020000000000000018
990 0.0020000000000000018
991 0.0020000000000000018
992 0.0020000000000000018
993 0.0020000000000000018
994 0.192
995 0.0020000000000000018
996 0.0020000000000000018
997 0.0020000000000000018
998 0.0020000000000000018
999 0.0020000000000000018
1000 0.192
1001 0.0020000000000000018
1002 0.0020000000000000018
1003 0.0020000000000000018
1004 0.0020000000000000018
1005 0.0020000000000000018
1006 0.0020000000000000018
1007 0.0020000000000000018
1008 0.0020000000000000018
1009 0.192
1010 0.0020000000000000018
1011 0.0020000000000000018
1012 0.0020000000000000018
1013 0.0020000000000000018
1014 0.0020000000000000018
1015 0.0020000000000000018
1016 0.0020000000000000018
1017 0.0020000000000000018
1018 0.0020000000000000018
1019 0.192
1020 0.0020000000000000018
1021 0.0020000000000000018
1022 0.0020000000000000018
1023 0.0020000000000000018
1024 0.0020000000000000018
1025 0.0020000000000000018
1026 0.0020000000000000018
1027 0.0020000000000000018
1028 0.192
1029 0.0020000000000000018
1030 0.0020000000000000018
1031 0.0020000000000000018
1032 1.0
